# SCIP version 4.0.1.3

# solve auxiliary LPs in order to find valid inequalities for bilinear terms?
# [type: bool, advanced: TRUE, range: {TRUE,FALSE}, default: TRUE]
propagating/obbt/createbilinineqs = TRUE
